(set-info :source |printed by MathSAT|)
(declare-fun |!{$(in_main#0)<a1.1>}| () (Array Int Int))
(declare-fun |!{$(in_main#0)<a1.1>}.next| () (Array Int Int))
(declare-fun |!{$(in_main#0)<a2.2>}| () (Array Int Int))
(declare-fun |!{$(in_main#0)<a2.2>}.next| () (Array Int Int))
(declare-fun |!{$(in_main#0)<a3.3>}| () (Array Int Int))
(declare-fun |!{$(in_main#0)<a3.3>}.next| () (Array Int Int))
(declare-fun |!{$(in_main#0)<N>}| () Int)
(declare-fun |!{$(in_main#0)<N>}.next| () Int)
(declare-fun |!{$(in_main#0)<i>}| () Int)
(declare-fun |!{$(in_main#0)<i>}.next| () Int)
(declare-fun |!{$(in_main#0)<x>}| () Int)
(declare-fun |!{$(in_main#0)<x>}.next| () Int)
(declare-fun |!{$(in_main#0)<z>}| () Int)
(declare-fun |!{$(in_main#0)<z>}.next| () Int)
(declare-fun |!{$(in_main#0)<$(in___VERIFIER_nondet_int#0)<h#<__VERIFIER_nondet_int.return>>>}| () Int)
(declare-fun |!{$(in_main#0)<$(in___VERIFIER_nondet_int#2)<h#<__VERIFIER_nondet_int.return>>>}| () Int)
(declare-fun |!{$(in_main#0)<$(in___VERIFIER_nondet_int#3)<h#<__VERIFIER_nondet_int.return>>>}| () Int)
(declare-fun |!{$(in_main#0)<$(in___VERIFIER_nondet_int#4)<h#<__VERIFIER_nondet_int.return>>>}| () Int)
(declare-fun |!{$(in_main#0)<$(in___VERIFIER_nondet_int#5)<h#<__VERIFIER_nondet_int.return>>>}| () Int)
(declare-fun !pc () Int)
(declare-fun !pc.next () Int)
(declare-fun |%{$(in_main#0)<x>}#1| () Int)
(declare-fun |%{$(in_main#0)<z>}#1| () Int)
(declare-fun |%{$(in_main#0)<a1.1>}#1| () (Array Int Int))
(declare-fun |%{$(in_main#0)<a2.2>}#1| () (Array Int Int))
(declare-fun |%{$(in_main#0)<a3.3>}#1| () (Array Int Int))
(declare-fun |%{$(in_main#0)<a3.3>}#2| () (Array Int Int))
(declare-fun |%{$(in_main#0)<a2.2>}#2| () (Array Int Int))
(define-fun .def_52 () Int (! !pc :next !pc.next))
(define-fun .def_55 () Bool (! (= .def_52 2) :init true))
(define-fun .def_256 () Bool (= .def_52 50))
(define-fun .def_224 () Bool (= !pc.next 110))
(define-fun .def_259 () Bool (and .def_224 .def_256))
(define-fun .def_252 () Bool (= |!{$(in_main#0)<z>}.next| |!{$(in_main#0)<$(in___VERIFIER_nondet_int#5)<h#<__VERIFIER_nondet_int.return>>>}|))
(define-fun .def_10 () (Array Int Int) (! |!{$(in_main#0)<a2.2>}| :next |!{$(in_main#0)<a2.2>}.next|))
(define-fun .def_105 () Bool (= .def_10 |!{$(in_main#0)<a2.2>}.next|))
(define-fun .def_8 () (Array Int Int) (! |!{$(in_main#0)<a1.1>}| :next |!{$(in_main#0)<a1.1>}.next|))
(define-fun .def_103 () Bool (= .def_8 |!{$(in_main#0)<a1.1>}.next|))
(define-fun .def_118 () Bool (and .def_103 .def_105))
(define-fun .def_12 () (Array Int Int) (! |!{$(in_main#0)<a3.3>}| :next |!{$(in_main#0)<a3.3>}.next|))
(define-fun .def_107 () Bool (= .def_12 |!{$(in_main#0)<a3.3>}.next|))
(define-fun .def_119 () Bool (and .def_107 .def_118))
(define-fun .def_14 () Int (! |!{$(in_main#0)<N>}| :next |!{$(in_main#0)<N>}.next|))
(define-fun .def_109 () Bool (= .def_14 |!{$(in_main#0)<N>}.next|))
(define-fun .def_120 () Bool (and .def_109 .def_119))
(define-fun .def_81 () Bool (= |!{$(in_main#0)<i>}.next| 0))
(define-fun .def_218 () Bool (and .def_81 .def_120))
(define-fun .def_18 () Int (! |!{$(in_main#0)<x>}| :next |!{$(in_main#0)<x>}.next|))
(define-fun .def_113 () Bool (= .def_18 |!{$(in_main#0)<x>}.next|))
(define-fun .def_219 () Bool (and .def_113 .def_218))
(define-fun .def_253 () Bool (and .def_219 .def_252))
(define-fun .def_235 () Bool (<= .def_14 |!{$(in_main#0)<$(in___VERIFIER_nondet_int#5)<h#<__VERIFIER_nondet_int.return>>>}|))
(define-fun .def_236 () Bool (not .def_235))
(define-fun .def_234 () Bool (<= 0 |!{$(in_main#0)<$(in___VERIFIER_nondet_int#5)<h#<__VERIFIER_nondet_int.return>>>}|))
(define-fun .def_237 () Bool (and .def_234 .def_236))
(define-fun .def_238 () Int (ite .def_237 1 0))
(define-fun .def_239 () Bool (= .def_238 0))
(define-fun .def_240 () Bool (not .def_239))
(define-fun .def_254 () Bool (and .def_240 .def_253))
(define-fun .def_16 () Int (! |!{$(in_main#0)<i>}| :next |!{$(in_main#0)<i>}.next|))
(define-fun .def_154 () Bool (<= .def_14 .def_16))
(define-fun .def_255 () Bool (and .def_154 .def_254))
(define-fun .def_260 () Bool (and .def_255 .def_259))
(define-fun .def_89 () Bool (= !pc.next 50))
(define-fun .def_257 () Bool (and .def_89 .def_256))
(define-fun .def_233 () (Array Int Int) (store .def_12 .def_16 |!{$(in_main#0)<$(in___VERIFIER_nondet_int#4)<h#<__VERIFIER_nondet_int.return>>>}|))
(define-fun .def_245 () Bool (= |!{$(in_main#0)<a3.3>}.next| .def_233))
(define-fun .def_232 () (Array Int Int) (store .def_10 .def_16 |!{$(in_main#0)<$(in___VERIFIER_nondet_int#3)<h#<__VERIFIER_nondet_int.return>>>}|))
(define-fun .def_243 () Bool (= |!{$(in_main#0)<a2.2>}.next| .def_232))
(define-fun .def_231 () (Array Int Int) (store .def_8 .def_16 |!{$(in_main#0)<$(in___VERIFIER_nondet_int#2)<h#<__VERIFIER_nondet_int.return>>>}|))
(define-fun .def_242 () Bool (= |!{$(in_main#0)<a1.1>}.next| .def_231))
(define-fun .def_244 () Bool (and .def_242 .def_243))
(define-fun .def_246 () Bool (and .def_244 .def_245))
(define-fun .def_247 () Bool (and .def_109 .def_246))
(define-fun .def_178 () Int (* (- 1) |!{$(in_main#0)<i>}.next|))
(define-fun .def_179 () Int (+ .def_16 .def_178))
(define-fun .def_180 () Bool (= .def_179 (- 1)))
(define-fun .def_248 () Bool (and .def_180 .def_247))
(define-fun .def_249 () Bool (and .def_113 .def_248))
(define-fun .def_20 () Int (! |!{$(in_main#0)<z>}| :next |!{$(in_main#0)<z>}.next|))
(define-fun .def_115 () Bool (= .def_20 |!{$(in_main#0)<z>}.next|))
(define-fun .def_250 () Bool (and .def_115 .def_249))
(define-fun .def_155 () Bool (not .def_154))
(define-fun .def_251 () Bool (and .def_155 .def_250))
(define-fun .def_258 () Bool (and .def_251 .def_257))
(define-fun .def_261 () Bool (or .def_258 .def_260))
(define-fun .def_223 () Bool (= .def_52 110))
(define-fun .def_192 () Bool (= !pc.next 134))
(define-fun .def_227 () Bool (and .def_192 .def_223))
(define-fun .def_220 () Bool (and .def_115 .def_219))
(define-fun .def_221 () Bool (and .def_154 .def_220))
(define-fun .def_228 () Bool (and .def_221 .def_227))
(define-fun .def_225 () Bool (and .def_223 .def_224))
(define-fun .def_209 () Bool (= |!{$(in_main#0)<a2.2>}.next| |%{$(in_main#0)<a2.2>}#2|))
(define-fun .def_210 () Bool (and .def_103 .def_209))
(define-fun .def_211 () Bool (and .def_107 .def_210))
(define-fun .def_212 () Bool (and .def_109 .def_211))
(define-fun .def_213 () Bool (and .def_180 .def_212))
(define-fun .def_214 () Bool (and .def_113 .def_213))
(define-fun .def_215 () Bool (and .def_115 .def_214))
(define-fun .def_161 () Int (select .def_8 .def_16))
(define-fun .def_199 () (Array Int Int) (store .def_10 .def_16 .def_161))
(define-fun .def_204 () Bool (= .def_199 |%{$(in_main#0)<a2.2>}#2|))
(define-fun .def_156 () Bool (= .def_16 .def_20))
(define-fun .def_157 () Bool (not .def_156))
(define-fun .def_206 () Bool (and .def_157 .def_204))
(define-fun .def_203 () Bool (= .def_10 |%{$(in_main#0)<a2.2>}#2|))
(define-fun .def_205 () Bool (and .def_156 .def_203))
(define-fun .def_207 () Bool (or .def_205 .def_206))
(define-fun .def_216 () Bool (and .def_207 .def_215))
(define-fun .def_217 () Bool (and .def_155 .def_216))
(define-fun .def_226 () Bool (and .def_217 .def_225))
(define-fun .def_229 () Bool (or .def_226 .def_228))
(define-fun .def_191 () Bool (= .def_52 134))
(define-fun .def_143 () Bool (= !pc.next 159))
(define-fun .def_195 () Bool (and .def_143 .def_191))
(define-fun .def_186 () Bool (= |!{$(in_main#0)<x>}.next| 0))
(define-fun .def_111 () Bool (= .def_16 |!{$(in_main#0)<i>}.next|))
(define-fun .def_121 () Bool (and .def_111 .def_120))
(define-fun .def_187 () Bool (and .def_121 .def_186))
(define-fun .def_188 () Bool (and .def_115 .def_187))
(define-fun .def_189 () Bool (and .def_154 .def_188))
(define-fun .def_196 () Bool (and .def_189 .def_195))
(define-fun .def_193 () Bool (and .def_191 .def_192))
(define-fun .def_175 () Bool (= |!{$(in_main#0)<a3.3>}.next| |%{$(in_main#0)<a3.3>}#2|))
(define-fun .def_176 () Bool (and .def_118 .def_175))
(define-fun .def_177 () Bool (and .def_109 .def_176))
(define-fun .def_181 () Bool (and .def_177 .def_180))
(define-fun .def_182 () Bool (and .def_113 .def_181))
(define-fun .def_183 () Bool (and .def_115 .def_182))
(define-fun .def_162 () (Array Int Int) (store .def_12 .def_16 .def_161))
(define-fun .def_169 () Bool (= .def_162 |%{$(in_main#0)<a3.3>}#2|))
(define-fun .def_171 () Bool (and .def_156 .def_169))
(define-fun .def_158 () Int (select .def_10 .def_16))
(define-fun .def_159 () (Array Int Int) (store .def_12 .def_16 .def_158))
(define-fun .def_168 () Bool (= .def_159 |%{$(in_main#0)<a3.3>}#2|))
(define-fun .def_170 () Bool (and .def_157 .def_168))
(define-fun .def_172 () Bool (or .def_170 .def_171))
(define-fun .def_184 () Bool (and .def_172 .def_183))
(define-fun .def_185 () Bool (and .def_155 .def_184))
(define-fun .def_194 () Bool (and .def_185 .def_193))
(define-fun .def_197 () Bool (or .def_194 .def_196))
(define-fun .def_147 () Bool (= !pc.next 0))
(define-fun .def_138 () Bool (= .def_52 159))
(define-fun .def_148 () Bool (and .def_138 .def_147))
(define-fun .def_92 () Bool (<= .def_14 .def_18))
(define-fun .def_130 () Bool (and .def_92 .def_103))
(define-fun .def_131 () Bool (and .def_105 .def_130))
(define-fun .def_132 () Bool (and .def_107 .def_131))
(define-fun .def_133 () Bool (and .def_109 .def_132))
(define-fun .def_134 () Bool (and .def_111 .def_133))
(define-fun .def_135 () Bool (and .def_113 .def_134))
(define-fun .def_136 () Bool (and .def_115 .def_135))
(define-fun .def_149 () Bool (and .def_136 .def_148))
(define-fun .def_144 () Bool (and .def_138 .def_143))
(define-fun .def_123 () Int (* (- 1) |!{$(in_main#0)<x>}.next|))
(define-fun .def_124 () Int (+ .def_18 .def_123))
(define-fun .def_125 () Bool (= .def_124 (- 1)))
(define-fun .def_126 () Bool (and .def_121 .def_125))
(define-fun .def_127 () Bool (and .def_115 .def_126))
(define-fun .def_95 () Int (select .def_12 .def_18))
(define-fun .def_94 () Int (select .def_10 .def_18))
(define-fun .def_96 () Bool (= .def_94 .def_95))
(define-fun .def_97 () Int (ite .def_96 1 0))
(define-fun .def_98 () Bool (= .def_97 0))
(define-fun .def_99 () Bool (not .def_98))
(define-fun .def_128 () Bool (and .def_99 .def_127))
(define-fun .def_93 () Bool (not .def_92))
(define-fun .def_129 () Bool (and .def_93 .def_128))
(define-fun .def_145 () Bool (and .def_129 .def_144))
(define-fun .def_140 () Bool (= !pc.next 179))
(define-fun .def_141 () Bool (and .def_138 .def_140))
(define-fun .def_104 () Bool (and .def_98 .def_103))
(define-fun .def_106 () Bool (and .def_104 .def_105))
(define-fun .def_108 () Bool (and .def_106 .def_107))
(define-fun .def_110 () Bool (and .def_108 .def_109))
(define-fun .def_112 () Bool (and .def_110 .def_111))
(define-fun .def_114 () Bool (and .def_112 .def_113))
(define-fun .def_116 () Bool (and .def_114 .def_115))
(define-fun .def_117 () Bool (and .def_93 .def_116))
(define-fun .def_142 () Bool (and .def_117 .def_141))
(define-fun .def_146 () Bool (or .def_142 .def_145))
(define-fun .def_150 () Bool (or .def_146 .def_149))
(define-fun .def_90 () Bool (and .def_55 .def_89))
(define-fun .def_85 () Bool (= |!{$(in_main#0)<z>}.next| |%{$(in_main#0)<z>}#1|))
(define-fun .def_83 () Bool (= |!{$(in_main#0)<x>}.next| |%{$(in_main#0)<x>}#1|))
(define-fun .def_79 () Bool (= |!{$(in_main#0)<N>}.next| |!{$(in_main#0)<$(in___VERIFIER_nondet_int#0)<h#<__VERIFIER_nondet_int.return>>>}|))
(define-fun .def_77 () Bool (= |!{$(in_main#0)<a3.3>}.next| |%{$(in_main#0)<a3.3>}#1|))
(define-fun .def_75 () Bool (= |!{$(in_main#0)<a2.2>}.next| |%{$(in_main#0)<a2.2>}#1|))
(define-fun .def_74 () Bool (= |!{$(in_main#0)<a1.1>}.next| |%{$(in_main#0)<a1.1>}#1|))
(define-fun .def_76 () Bool (and .def_74 .def_75))
(define-fun .def_78 () Bool (and .def_76 .def_77))
(define-fun .def_80 () Bool (and .def_78 .def_79))
(define-fun .def_82 () Bool (and .def_80 .def_81))
(define-fun .def_84 () Bool (and .def_82 .def_83))
(define-fun .def_86 () Bool (and .def_84 .def_85))
(define-fun .def_69 () Bool (<= |!{$(in_main#0)<$(in___VERIFIER_nondet_int#0)<h#<__VERIFIER_nondet_int.return>>>}| 0))
(define-fun .def_70 () Bool (not .def_69))
(define-fun .def_71 () Int (ite .def_70 1 0))
(define-fun .def_72 () Bool (= .def_71 0))
(define-fun .def_73 () Bool (not .def_72))
(define-fun .def_87 () Bool (and .def_73 .def_86))
(define-fun .def_91 () Bool (and .def_87 .def_90))
(define-fun .def_151 () Bool (or .def_91 .def_150))
(define-fun .def_198 () Bool (or .def_151 .def_197))
(define-fun .def_230 () Bool (or .def_198 .def_229))
(define-fun .def_262 () Bool (! (or .def_230 .def_261) :trans true))
(define-fun .def_152 () Bool (= .def_52 179))
(define-fun .def_263 () Bool (! (not .def_152) :invar-property 0 :invar-property-name ||))
(assert true)
